p cnf 3226 2920
c ind 1439 1440 1441 1442 1443 1444 1445 1446 1447 1448 0
c ind 1449 1450 1451 1452 1453 1454 1455 1456 1457 1458 0
c ind 1459 1460 1461 1462 1463 1464 1465 1466 1467 1468 0
c ind 1469 1470 1471 1472 1473 1474 1475 1476 1477 1478 0
c ind 1479 1480 1481 1482 1483 1484 1485 1486 1487 1488 0
c ind 1489 1490 1491 1492 1493 1494 1495 1496 1497 1498 0
c ind 1499 1500 1501 1502 1503 1504 1505 1820 1821 1822 0
c ind 1823 1824 1825 1826 1827 1828 1829 1830 1831 1832 0
c ind 1833 1834 1835 1836 1837 1838 1839 1840 1841 1842 0
c ind 1843 1844 1845 1846 1847 1848 1849 1850 1851 1852 0
c ind 1853 1854 1855 1856 1857 1858 1859 1860 1861 1862 0
c ind 1863 1864 1865 1866 1867 1868 1869 1870 1871 1872 0
c ind 1873 1874 1875 1876 1877 1878 1879 1880 1881 1882 0
c ind 1883 1884 1885 1886 1887 1888 1889 1890 1891 1674 0
c ind 1413 1414 1030 1031 1032 1033 1034 1004 1005 1006 0
c ind 1007 1008 1009 1010 1011 1892 1012 1893 1013 1014 0
c ind 1894 1015 1895 1016 1017 1018 1019 1020 1021 1022 0
c ind 1023 1024 1025 1026 1388 1389 1896 1897 1390 1391 0
c ind 1392 1898 1393 1394 1899 1027 1395 1396 1397 1398 0
c ind 1399 1400 1401 1402 1900 1403 1404 1405 1406 1407 0
c ind 1901 1408 1902 1409 1903 1410 1675 1415 1416 1417 0
c ind 1418 1419 1420 1421 1422 1423 1424 1425 1426 1676 0
c ind 1427 1428 1429 1430 1431 1432 1677 1678 1433 1434 0
c ind 1679 1435 1680 1436 1437 1796 1797 1028 1798 1799 0
c ind 1800 1801 1802 1803 1804 1805 1806 1807 1808 1809 0
c ind 1810 1681 1811 1682 1812 1683 1813 1814 1684 1815 0
c ind 1816 1817 1818 1819 1766 1767 1768 1769 1770 1771 0
c ind 1685 1772 1773 1774 1686 1775 1687 1776 1688 1689 0
c ind 1777 1778 1779 1780 1781 1782 1783 1029 1784 1785 0
c ind 1786 1787 1788 1789 1690 1691 1790 1791 1792 1793 0
c ind 1794 1692 1795 1608 1609 1610 1611 1612 1613 1614 0
c ind 1615 1693 1616 1617 1618 1619 1620 1694 1695 1621 0
c ind 1622 1696 1623 1624 1697 1625 1626 1627 1628 1629 0
c ind 1630 1631 1632 1633 1634 1635 1636 1637 1638 1639 0
c ind 1640 1641 1642 1643 1644 1645 1646 1647 1648 1649 0
c ind 1650 1651 1652 1653 1654 1655 1656 1657 1658 1659 0
c ind 1660 1661 1662 1663 1664 1665 1666 1411 1667 1668 0
c ind 1669 1670 1671 1672 1673 1563 1564 1565 1566 1567 0
c ind 1568 1569 1570 1571 1572 1573 1574 1575 1576 1577 0
c ind 1578 1579 1580 1581 1582 1583 1584 1585 1586 1587 0
c ind 1588 1589 1590 1591 1592 1593 1594 1412 1595 1596 0
c ind 1597 1598 1599 1600 1601 1602 1603 1604 1605 1606 0
c ind 1607 1506 1507 1508 1509 1510 1511 1512 1513 1514 0
c ind 1515 1516 1517 1518 1519 1520 1521 1522 1523 1524 0
c ind 1525 1526 1527 1528 1529 1530 1531 1532 1533 1534 0
c ind 1535 1536 1537 1538 1539 1540 1541 1542 1543 1544 0
c ind 1545 1546 1547 1548 1549 1550 1551 1552 1553 1554 0
c ind 1555 1556 1557 1558 1559 1560 1561 1562 1438 0
846 -847 966 0
846 -847 875 0
-846 847 0
-875 -966 -846 0
847 -848 -862 -868 -871 0
-847 871 0
-847 848 0
-847 868 0
-847 862 0
848 -849 858 0
-848 849 0
-848 -858 0
849 850 854 -1410 -1800 0
-849 1800 0
-849 -854 0
-849 1410 0
-849 -850 0
851 1801 850 1802 1803 0
-850 -851 0
-850 -1803 0
-850 -1801 0
-850 -1802 0
851 852 -1806 0
851 852 853 -1807 0
-851 -852 0
-851 -853 1806 0
-851 1806 1807 0
852 1804 -1805 0
-852 -1804 0
-852 1805 0
853 1812 1813 0
853 1766 1767 1812 0
-853 -1812 0
-853 -1767 -1813 0
-853 -1766 -1813 0
855 1415 854 1416 1417 0
-854 -855 0
-854 -1417 0
-854 -1415 0
-854 -1416 0
855 856 -1420 0
855 856 857 -1421 0
-855 -856 0
-855 -857 1420 0
-855 1420 1421 0
856 1418 -1419 0
-856 -1418 0
-856 1419 0
857 1426 1427 0
857 1426 1434 1435 0
-857 -1426 0
-857 -1427 -1434 0
-857 -1427 -1435 0
-859 -1023 858 0
-861 -1023 858 0
-860 -1023 858 0
-858 1023 0
-858 859 860 861 0
859 -1390 1391 1392 0
-859 1390 0
-859 -1392 0
-859 -1391 0
860 1390 1393 1394 0
-860 -1390 0
-860 -1394 0
-860 -1393 0
861 -1024 1025 1026 0
-861 1024 0
-861 -1026 0
-861 -1025 0
862 865 1668 0
862 863 865 0
862 865 1564 0
-862 -865 0
-863 -1564 -862 -1668 0
863 -864 -1565 1566 0
-863 1565 0
-863 -1566 0
-863 864 0
864 1568 -1569 -1570 1571 0
-864 -1568 0
-864 -1571 0
-864 1570 0
-864 1569 0
-866 -867 865 -1657 0
-866 -867 865 -1658 0
-865 867 0
-865 866 0
-865 1657 1658 0
866 1660 1661 1662 1663 0
-866 -1663 0
-866 -1662 0
-866 -1660 0
-866 -1661 0
867 -1654 -1655 -1656 1659 0
-867 1656 0
-867 -1659 0
-867 1654 0
-867 1655 0
868 -869 -1593 0
-868 1593 0
-868 869 0
869 -870 -1453 -1482 0
-869 1453 0
-869 1482 0
-869 870 0
870 -1520 -1549 -1825 -1854 0
-870 1854 0
-870 1520 0
-870 1825 0
-870 1549 0
871 872 874 -1411 0
871 872 874 1412 0
-871 -874 0
-871 -872 0
1411 -1412 -871 0
-873 -1674 872 0
-872 1674 0
-872 873 0
873 1626 1627 1628 0
-873 -1626 0
-873 -1628 0
-873 -1627 0
1028 1029 874 0
-874 -1028 0
-874 -1029 0
875 -876 -905 -930 -957 0
-875 957 0
-875 876 0
-875 930 0
-875 905 0
876 -877 894 0
876 894 1221 0
-876 -894 0
-876 877 -1221 0
877 -878 -868 0
877 892 -868 0
868 -877 0
-877 878 -892 0
878 -879 -891 -1697 0
878 879 -880 -891 0
-878 891 0
-878 -879 1697 0
-878 879 880 0
879 1588 -1590 0
-879 -1588 0
-879 1590 0
880 -881 -1696 0
880 881 -882 0
-880 -881 1696 0
-880 881 882 0
881 1671 -1673 0
-881 -1671 0
-881 1673 0
882 883 865 890 0
882 883 865 -887 0
-865 -882 0
-882 -883 0
-882 887 -890 0
883 -885 -1647 1674 0
883 884 1647 1674 0
-883 -1674 0
-883 885 -1647 0
-883 -884 1647 0
884 -1693 -848 0
-884 1693 0
848 -884 0
885 -886 1694 0
884 885 886 0
-885 -886 -1694 0
-884 -885 886 0
886 1613 -1615 0
-886 -1613 0
-886 1615 0
885 887 -888 0
-885 -887 0
-887 888 0
873 888 889 0
-873 -888 0
-888 -889 0
889 1634 -1636 0
-889 -1634 0
-889 1636 0
889 890 -1674 0
890 -1674 1695 0
-890 1674 0
-889 -890 -1695 0
891 1564 -1668 0
-891 -1564 0
-891 1668 0
892 893 -1668 0
880 882 892 0
882 892 893 0
880 892 -1668 0
-882 -892 1668 0
-880 -892 -893 0
863 893 -1564 -1668 0
-893 1564 0
-893 1668 0
-863 -893 0
894 -895 1703 0
894 895 -1703 0
-894 -895 -1703 0
-894 895 1703 0
895 -896 -868 0
895 904 -868 0
868 -895 0
-895 896 -904 0
879 -891 896 -897 0
-879 -891 896 -1895 0
891 -896 0
879 -896 897 0
-879 -896 1895 0
-881 897 -1894 0
881 897 -898 0
-881 -897 1894 0
881 -897 898 0
898 899 865 903 0
898 899 865 -902 0
-865 -898 0
-898 -899 0
-898 902 -903 0
899 900 -1674 1893 0
889 899 900 -1674 0
-899 1674 0
-899 -900 0
-889 -899 -1893 0
-888 900 901 0
888 -900 0
-900 -901 0
-886 901 1892 0
848 886 901 0
886 901 1412 0
-886 -901 -1892 0
886 -901 -848 -1412 0
902 -1412 -848 1647 0
886 902 -848 -1412 0
-902 1412 0
848 -902 0
-886 -902 -1647 0
886 903 1674 0
903 1674 1892 0
903 1647 1674 0
-903 -1674 0
-886 -903 -1647 -1892 0
897 904 -1668 0
893 898 904 0
897 898 904 0
893 904 -1668 0
-893 -897 -904 0
-898 -904 1668 0
905 1204 -906 0
905 915 -906 0
-905 906 0
-905 -915 -1204 0
906 -907 -868 0
906 914 -868 0
868 -906 0
907 -914 -906 0
879 -891 907 -908 0
-879 -891 907 -1899 0
891 -907 0
879 -907 908 0
-879 -907 1899 0
-881 908 -1898 0
881 908 -909 0
-881 -908 1898 0
881 -908 909 0
909 910 865 913 0
909 910 865 -912 0
-865 -909 0
-909 -910 0
-909 912 -913 0
910 -911 -1647 1674 0
848 910 1647 1674 0
-910 -1674 0
-910 911 -1647 0
-910 1647 -848 0
848 886 911 0
-886 911 1896 0
886 -911 -848 0
-886 -911 -1896 0
-888 911 912 0
888 -912 0
-911 -912 0
889 913 -1674 0
913 -1674 1897 0
-913 1674 0
-889 -913 -1897 0
908 914 -1668 0
893 909 914 0
908 909 914 0
893 914 -1668 0
-893 -908 -914 0
-909 -914 1668 0
915 916 928 1680 0
915 916 927 928 0
-915 -928 0
-915 -916 0
-915 -927 -1680 0
916 917 -920 -925 0
916 917 -920 926 0
-916 -917 0
-916 920 0
-916 925 -926 0
917 -919 -1647 1674 0
917 918 1647 1674 0
-917 -1674 0
-917 919 -1647 0
-917 -918 1647 0
918 -1676 -848 0
-918 1676 0
848 -918 0
-886 919 1677 0
886 918 919 0
-886 -919 -1677 0
886 -918 -919 0
920 921 865 0
-865 -920 0
-920 -921 0
-881 921 -1668 0
921 922 -1668 0
-921 1668 0
881 -921 -922 0
922 923 924 0
864 922 923 -1668 0
-922 -923 0
-922 -924 1668 0
-864 -922 -924 0
-879 923 1564 0
-923 -1564 0
879 -923 0
924 -1564 -1565 1566 0
-924 1564 0
-924 1565 0
-924 -1566 0
-888 919 925 0
888 -925 0
-919 -925 0
889 926 -1674 0
926 -1674 1678 0
-926 1674 0
-889 -926 -1678 0
-879 -891 927 0
879 -927 0
891 -927 0
-881 928 -929 -1679 0
-928 1679 0
881 -928 0
-928 929 0
-922 929 -1668 0
-929 1668 0
922 -929 0
930 -932 -936 -1204 0
930 931 -932 -936 0
-930 936 0
-930 932 0
-930 -931 1204 0
915 931 -868 0
868 -931 0
-915 -931 0
932 -933 1184 0
932 933 -1184 0
-932 -933 -1184 0
-932 933 1184 0
933 -935 872 -934 -849 0
-933 935 0
849 -933 0
-933 934 0
-872 -933 0
934 -862 -1593 0
-934 1593 0
862 -934 0
935 -1883 -869 1885 0
-935 1883 0
-935 -1885 0
869 -935 0
936 937 945 953 -954 0
-936 954 0
-936 -953 0
-936 -937 0
-936 -945 0
939 1668 937 0
881 938 937 939 0
-937 -939 0
-937 -938 -1668 0
-881 -937 -1668 0
-879 938 1564 -1684 0
879 -938 0
-938 1684 0
-938 -1564 0
939 940 865 944 0
939 940 865 -943 0
-865 -939 0
-939 -940 0
-939 943 -944 0
940 -942 -1647 1674 0
940 941 1647 1674 0
-940 -1674 0
-940 942 -1647 0
-940 -941 1647 0
941 -1411 -848 0
-941 1411 0
848 -941 0
-886 942 1681 0
886 941 942 0
-886 -942 -1681 0
886 -941 -942 0
-888 942 943 0
888 -943 0
-942 -943 0
889 944 -1674 0
944 -1674 1682 0
-944 1674 0
-889 -944 -1682 0
946 -949 945 0
849 945 946 0
-949 -952 -849 945 0
849 -945 -946 0
-945 949 -849 0
-945 -946 952 0
946 947 1779 0
946 -1674 1779 0
-946 -1779 0
-946 -947 1674 0
947 -948 1647 1648 1651 0
-947 948 0
-947 -1651 0
-947 -1647 0
-947 -1648 0
948 1649 1650 0
-948 -1649 0
-948 -1650 0
949 -951 1883 0
949 -950 -1883 0
-858 949 1883 0
-949 950 -1883 0
-949 951 858 1883 0
950 1885 1889 0
-946 950 1885 0
-950 -1885 0
946 -950 -1889 0
951 1033 1691 0
-951 -1033 0
-951 -1691 0
952 -1883 1891 0
-952 1883 0
-952 -1891 0
-921 922 938 953 0
-921 938 953 1683 0
921 -953 0
-938 -953 0
-922 -953 -1683 0
954 -955 -868 872 -934 0
-954 955 0
868 -954 0
934 -954 0
-872 -954 0
873 955 956 0
-947 955 1674 0
955 956 1674 0
-873 -1674 -955 0
947 -956 -955 0
-956 -1674 -955 0
956 1692 1779 0
-956 -1692 0
-956 -1779 0
957 -958 -1213 0
957 958 1213 0
-957 -958 1213 0
-957 958 -1213 0
958 964 -868 0
958 959 -868 -962 0
868 -958 0
-958 -959 -964 0
-958 962 -964 0
959 -961 -1647 1674 0
959 960 1647 1674 0
-959 -1674 0
-959 961 -1647 0
-959 -960 1647 0
960 -1685 -848 0
-960 1685 0
848 -960 0
-886 961 1686 0
886 960 961 0
-886 -961 -1686 0
886 -960 -961 0
-920 962 963 0
-888 -920 961 962 0
920 -962 0
888 -962 -963 0
-961 -962 -963 0
889 963 -1674 0
963 -1674 1687 0
-963 1674 0
-889 -963 -1687 0
879 964 965 0
891 964 965 0
964 965 1689 0
-964 -965 0
-879 -891 -964 -1689 0
-881 -929 965 -1688 0
-965 1688 0
881 -965 0
929 -965 0
966 -967 977 -1199 0
966 967 977 1199 0
-966 -977 0
-966 967 -1199 0
-966 -967 1199 0
967 -968 -868 0
967 976 -868 0
868 -967 0
-967 968 -976 0
879 -891 968 -969 0
-879 -891 968 -1675 0
891 -968 0
879 -968 969 0
-879 -968 1675 0
-881 969 -1903 0
881 969 -970 0
-881 -969 1903 0
881 -969 970 0
970 971 865 975 0
970 971 865 -974 0
-865 -970 0
-970 -971 0
-970 974 -975 0
971 -973 -1647 1674 0
971 972 1647 1674 0
-971 -1674 0
-971 973 -1647 0
-971 -972 1647 0
972 -1900 -848 0
-972 1900 0
848 -972 0
-886 973 1901 0
886 972 973 0
-886 -973 -1901 0
886 -972 -973 0
-888 973 974 0
888 -974 0
-973 -974 0
889 975 -1674 0
975 -1674 1902 0
-975 1674 0
-889 -975 -1902 0
969 976 -1668 0
893 970 976 0
969 970 976 0
893 976 -1668 0
-893 -969 -976 0
-970 -976 1668 0
-877 977 1221 0
-977 -1221 0
877 -977 0
979 -847 978 0
-877 2121 978 -847 0
877 -2121 978 -847 0
847 -978 0
877 -978 -979 2121 0
-877 -978 -979 -2121 0
-967 979 -980 -2099 0
967 979 -980 2099 0
-979 980 0
967 -2099 -979 0
-967 2099 -979 0
895 980 -981 -982 2603 0
-895 980 -981 -982 -2603 0
-980 982 0
895 -2603 -980 0
-980 981 0
-895 2603 -980 0
981 -936 -906 0
906 -981 0
936 -981 0
982 -983 -984 -2113 0
958 982 -983 -984 0
-982 984 0
-982 983 0
-958 2113 -982 0
-933 983 2084 0
933 983 -2084 0
-933 -2084 -983 0
933 2084 -983 0
-931 984 -2104 2113 0
931 984 2104 2113 0
931 -958 984 2104 0
-931 -958 984 -2104 0
931 -2104 -984 0
-931 2104 -984 0
958 -2113 -984 0
-967 985 -847 0
875 985 -847 0
-977 985 -847 0
847 -985 0
-875 967 977 -985 0
986 988 -847 0
876 986 -847 0
986 987 -847 0
847 -986 0
-876 -986 -987 -988 0
-930 977 987 0
930 -987 0
-977 -987 0
-905 958 988 0
905 -988 0
-958 -988 0
-931 989 -847 0
989 990 -847 0
-977 989 -847 0
847 -989 0
931 977 -989 -990 0
-876 990 -991 0
876 -990 0
-990 991 0
-932 991 -981 0
932 -991 0
981 -991 0
-877 992 -847 0
992 993 -847 0
847 -992 0
877 -992 -993 0
894 -991 993 0
-894 -993 0
991 -993 0
-895 994 -847 0
991 994 -847 0
847 -994 0
895 -991 -994 0
981 995 -847 0
933 995 -847 0
847 -995 0
-933 -995 -981 0
981 996 -847 0
847 -996 0
-981 -996 0
967 997 -847 0
875 997 -847 0
-977 997 -847 0
847 -997 0
-875 -967 977 -997 0
998 999 -847 0
876 998 -847 0
987 998 -847 0
847 -998 0
-876 -987 -998 -999 0
-905 -958 999 0
905 -999 0
958 -999 0
-977 1000 -847 0
990 1000 -847 0
931 1000 -847 0
847 -1000 0
-931 977 -990 -1000 0
993 1001 -847 0
877 1001 -847 0
847 -1001 0
-877 -993 -1001 0
991 1002 -847 0
895 1002 -847 0
847 -1002 0
-895 -991 -1002 0
-933 1003 -847 0
981 1003 -847 0
847 -1003 0
933 -1003 -981 0
1 846 0
-1 -846 0
2 846 0
-2 -846 0
3 978 0
-3 -978 0
99 -985 0
-99 985 0
100 -986 0
-100 986 0
101 -989 0
-101 989 0
102 -992 0
-102 992 0
111 -994 0
-111 994 0
134 -995 0
-134 995 0
327 -996 0
-327 996 0
520 -997 0
-520 997 0
521 -998 0
-521 998 0
522 -1000 0
-522 1000 0
523 -1001 0
-523 1001 0
532 -1002 0
-532 1002 0
555 -1003 0
-555 1003 0
748 -996 0
-748 996 0
-99 -520 2900 0
99 -2900 0
520 -2900 0
99 -1199 0
-99 1199 0
-100 -521 2901 0
100 -2901 0
521 -2901 0
100 -1213 0
-100 1213 0
-101 -522 2902 0
101 -2902 0
522 -2902 0
101 -1204 0
-101 1204 0
-102 -523 2903 0
102 -2903 0
523 -2903 0
102 -1221 0
-102 1221 0
-111 -532 2912 0
111 -2912 0
532 -2912 0
111 -1703 0
-111 1703 0
-134 -555 2935 0
134 -2935 0
555 -2935 0
134 -1184 0
-134 1184 0
-327 -748 3128 0
327 -3128 0
748 -3128 0
327 -1277 0
-327 1277 0
-1 0
-2 0
3 0
4 0
5 0
6 0
7 0
8 0
9 0
10 0
11 0
12 0
13 0
14 0
15 0
16 0
17 0
18 0
19 0
20 0
21 0
22 0
23 0
24 0
25 0
26 0
27 0
28 0
29 0
30 0
31 0
32 0
33 0
34 0
35 0
36 0
37 0
38 0
39 0
40 0
41 0
42 0
43 0
44 0
45 0
46 0
47 0
48 0
49 0
50 0
51 0
52 0
53 0
54 0
55 0
56 0
57 0
58 0
59 0
60 0
61 0
62 0
63 0
64 0
65 0
66 0
67 0
68 0
69 0
70 0
71 0
72 0
73 0
74 0
75 0
76 0
77 0
78 0
79 0
80 0
81 0
82 0
83 0
84 0
85 0
86 0
87 0
88 0
89 0
90 0
91 0
92 0
93 0
94 0
95 0
96 0
97 0
98 0
103 0
104 0
105 0
106 0
107 0
108 0
109 0
110 0
112 0
113 0
114 0
115 0
116 0
117 0
118 0
119 0
120 0
121 0
122 0
123 0
124 0
125 0
126 0
127 0
128 0
129 0
130 0
131 0
132 0
133 0
135 0
136 0
137 0
138 0
139 0
140 0
141 0
142 0
143 0
144 0
145 0
146 0
147 0
148 0
149 0
150 0
151 0
152 0
153 0
154 0
155 0
156 0
157 0
158 0
159 0
160 0
161 0
162 0
163 0
164 0
165 0
166 0
167 0
168 0
169 0
170 0
171 0
172 0
173 0
174 0
175 0
176 0
177 0
178 0
179 0
180 0
181 0
182 0
183 0
184 0
185 0
186 0
187 0
188 0
189 0
190 0
191 0
192 0
193 0
194 0
195 0
196 0
197 0
198 0
199 0
200 0
201 0
202 0
203 0
204 0
205 0
206 0
207 0
208 0
209 0
210 0
211 0
212 0
213 0
214 0
215 0
216 0
217 0
218 0
219 0
220 0
221 0
222 0
223 0
224 0
225 0
226 0
227 0
228 0
229 0
230 0
231 0
232 0
233 0
234 0
235 0
236 0
237 0
238 0
239 0
240 0
241 0
242 0
243 0
244 0
245 0
246 0
247 0
248 0
249 0
250 0
251 0
252 0
253 0
254 0
255 0
256 0
257 0
258 0
259 0
260 0
261 0
262 0
263 0
264 0
265 0
266 0
267 0
268 0
269 0
270 0
271 0
272 0
-273 0
274 0
275 0
276 0
277 0
278 0
279 0
280 0
281 0
282 0
283 0
284 0
285 0
286 0
287 0
288 0
289 0
290 0
291 0
292 0
293 0
294 0
295 0
296 0
297 0
298 0
299 0
300 0
301 0
302 0
303 0
304 0
305 0
306 0
307 0
308 0
309 0
310 0
311 0
312 0
313 0
314 0
315 0
316 0
317 0
318 0
319 0
320 0
321 0
322 0
323 0
324 0
325 0
326 0
-327 0
328 0
329 0
330 0
331 0
332 0
333 0
334 0
335 0
-336 0
337 0
338 0
339 0
340 0
341 0
342 0
343 0
344 0
345 0
346 0
347 0
348 0
349 0
350 0
351 0
352 0
353 0
354 0
355 0
356 0
357 0
358 0
359 0
360 0
361 0
362 0
363 0
-364 0
365 0
366 0
367 0
368 0
369 0
370 0
371 0
372 0
373 0
374 0
375 0
376 0
377 0
378 0
379 0
380 0
381 0
382 0
383 0
384 0
385 0
386 0
387 0
388 0
389 0
390 0
391 0
392 0
393 0
394 0
395 0
396 0
397 0
398 0
399 0
400 0
401 0
402 0
403 0
404 0
405 0
406 0
407 0
408 0
409 0
410 0
411 0
412 0
413 0
414 0
415 0
416 0
417 0
418 0
419 0
420 0
421 0
422 0
423 0
424 0
-425 0
-426 0
-427 0
-428 0
-429 0
-430 0
-431 0
-432 0
-433 0
-434 0
-435 0
-436 0
-437 0
-438 0
-439 0
-440 0
-441 0
-442 0
-443 0
-444 0
-445 0
-446 0
-447 0
-448 0
-449 0
-450 0
-451 0
-452 0
-453 0
-454 0
-455 0
-456 0
-457 0
-458 0
-459 0
-460 0
-461 0
-462 0
-463 0
-464 0
-465 0
-466 0
-467 0
-468 0
-469 0
-470 0
-471 0
-472 0
-473 0
-474 0
-475 0
-476 0
-477 0
-478 0
-479 0
-480 0
-481 0
-482 0
-483 0
-484 0
-485 0
-486 0
-487 0
-488 0
-489 0
-490 0
-491 0
-492 0
-493 0
-494 0
-495 0
-496 0
-497 0
-498 0
-499 0
-500 0
-501 0
-502 0
-503 0
-504 0
-505 0
-506 0
-507 0
-508 0
-509 0
-510 0
-511 0
-512 0
-513 0
-514 0
-515 0
-516 0
-517 0
-518 0
-519 0
-524 0
-525 0
-526 0
-527 0
-528 0
-529 0
-530 0
-531 0
-533 0
-534 0
-535 0
-536 0
-537 0
-538 0
-539 0
-540 0
-541 0
-542 0
-543 0
-544 0
-545 0
-546 0
-547 0
-548 0
-549 0
-550 0
-551 0
-552 0
-553 0
-554 0
-556 0
-557 0
-558 0
-559 0
-560 0
-561 0
-562 0
-563 0
-564 0
-565 0
-566 0
-567 0
-568 0
-569 0
-570 0
-571 0
-572 0
-573 0
-574 0
-575 0
-576 0
-577 0
-578 0
-579 0
-580 0
-581 0
-582 0
-583 0
-584 0
-585 0
-586 0
-587 0
-588 0
-589 0
-590 0
-591 0
-592 0
-593 0
-594 0
-595 0
-596 0
-597 0
-598 0
-599 0
-600 0
-601 0
-602 0
-603 0
-604 0
-605 0
-606 0
-607 0
-608 0
-609 0
-610 0
-611 0
-612 0
-613 0
-614 0
-615 0
-616 0
-617 0
-618 0
-619 0
-620 0
-621 0
-622 0
-623 0
-624 0
-625 0
-626 0
-627 0
-628 0
-629 0
-630 0
-631 0
-632 0
-633 0
-634 0
-635 0
-636 0
-637 0
-638 0
-639 0
-640 0
-641 0
-642 0
-643 0
-644 0
-645 0
-646 0
-647 0
-648 0
-649 0
-650 0
-651 0
-652 0
-653 0
-654 0
-655 0
-656 0
-657 0
-658 0
-659 0
-660 0
-661 0
-662 0
-663 0
-664 0
-665 0
-666 0
-667 0
-668 0
-669 0
-670 0
-671 0
-672 0
-673 0
-674 0
-675 0
-676 0
-677 0
-678 0
-679 0
-680 0
-681 0
-682 0
-683 0
-684 0
-685 0
-686 0
-687 0
-688 0
-689 0
-690 0
-691 0
-692 0
-693 0
694 0
-695 0
-696 0
-697 0
-698 0
-699 0
-700 0
-701 0
-702 0
-703 0
-704 0
-705 0
-706 0
-707 0
-708 0
-709 0
-710 0
-711 0
-712 0
-713 0
-714 0
-715 0
-716 0
-717 0
-718 0
-719 0
-720 0
-721 0
-722 0
-723 0
-724 0
-725 0
-726 0
-727 0
-728 0
-729 0
-730 0
-731 0
-732 0
-733 0
-734 0
-735 0
-736 0
-737 0
-738 0
-739 0
-740 0
-741 0
-742 0
-743 0
-744 0
-745 0
-746 0
-747 0
-748 0
-749 0
-750 0
-751 0
-752 0
-753 0
-754 0
-755 0
-756 0
757 0
-758 0
-759 0
-760 0
-761 0
-762 0
-763 0
-764 0
-765 0
-766 0
-767 0
-768 0
-769 0
-770 0
-771 0
-772 0
-773 0
-774 0
-775 0
-776 0
-777 0
-778 0
-779 0
-780 0
-781 0
-782 0
-783 0
-784 0
785 0
-786 0
-787 0
-788 0
-789 0
-790 0
-791 0
-792 0
-793 0
-794 0
-795 0
-796 0
-797 0
-798 0
-799 0
-800 0
-801 0
-802 0
-803 0
-804 0
-805 0
-806 0
-807 0
-808 0
-809 0
-810 0
-811 0
-812 0
-813 0
-814 0
-815 0
-816 0
-817 0
-818 0
-819 0
-820 0
-821 0
-822 0
-823 0
-824 0
-825 0
-826 0
-827 0
-828 0
-829 0
-830 0
-831 0
-832 0
-833 0
-834 0
-835 0
-836 0
-837 0
-838 0
-839 0
-840 0
-841 0
-842 0
-843 0
-844 0
-845 0
846 0
847 0
848 0
849 0
-850 0
-854 0
-858 0
862 0
-865 0
868 0
869 0
870 0
871 0
-872 0
-874 0
906 0
934 0
936 0
-937 0
-945 0
-953 0
954 0
955 0
-978 0
979 0
980 0
981 0
982 0
983 0
984 0
-996 0
1035 0
1036 0
1037 0
1038 0
1039 0
1040 0
1041 0
1042 0
1043 0
1044 0
1045 0
1046 0
1047 0
1048 0
1049 0
1050 0
1051 0
1052 0
1053 0
1054 0
1055 0
1056 0
1057 0
1058 0
1059 0
1060 0
1061 0
1062 0
1063 0
1064 0
1065 0
1066 0
1067 0
1068 0
1069 0
1070 0
1071 0
1072 0
1073 0
1074 0
1075 0
1076 0
1077 0
1078 0
1079 0
1080 0
1081 0
1082 0
1083 0
1084 0
1085 0
1086 0
1087 0
1088 0
1089 0
1090 0
1091 0
1092 0
1093 0
1094 0
1095 0
1096 0
1097 0
1098 0
1099 0
1100 0
1101 0
1102 0
1103 0
1104 0
1105 0
1106 0
1107 0
1108 0
1109 0
1110 0
1111 0
1112 0
1113 0
1114 0
1115 0
1116 0
1117 0
1118 0
1119 0
1120 0
1121 0
1122 0
1123 0
1124 0
1125 0
1126 0
1127 0
1128 0
1129 0
1130 0
1131 0
1132 0
1133 0
1134 0
1135 0
1136 0
1137 0
1138 0
1139 0
1140 0
1141 0
1142 0
1143 0
1144 0
1145 0
1146 0
1147 0
1148 0
1149 0
1150 0
1151 0
1152 0
1153 0
1154 0
1155 0
1156 0
1157 0
1158 0
1159 0
1160 0
1161 0
1162 0
1163 0
1164 0
1165 0
1166 0
1167 0
1168 0
1169 0
1170 0
1171 0
1172 0
1173 0
1174 0
1175 0
1176 0
1177 0
1178 0
1179 0
1180 0
1181 0
1182 0
1183 0
1185 0
1186 0
1187 0
1188 0
1189 0
1190 0
1191 0
1192 0
1193 0
1194 0
1195 0
1196 0
1197 0
1198 0
1200 0
1201 0
1202 0
1203 0
1205 0
1206 0
1207 0
1208 0
1209 0
1210 0
1211 0
1212 0
1214 0
1215 0
1216 0
1217 0
1218 0
1219 0
1220 0
1222 0
1223 0
1224 0
1225 0
1226 0
1227 0
1228 0
1229 0
1230 0
1231 0
1232 0
1233 0
1234 0
1235 0
1236 0
1237 0
1238 0
1239 0
1240 0
1241 0
1242 0
1243 0
1244 0
1245 0
1246 0
1247 0
1248 0
-1249 0
1250 0
1251 0
1252 0
1253 0
1254 0
1255 0
1256 0
1257 0
1258 0
1259 0
1260 0
1261 0
1262 0
1263 0
1264 0
1265 0
1266 0
1267 0
1268 0
1269 0
1270 0
1271 0
1272 0
1273 0
1274 0
1275 0
1276 0
-1277 0
1278 0
1279 0
1280 0
1281 0
1282 0
1283 0
1284 0
1285 0
1286 0
1287 0
1288 0
1289 0
1290 0
1291 0
1292 0
1293 0
1294 0
1295 0
1296 0
1297 0
1298 0
1299 0
1300 0
1301 0
1302 0
1303 0
1304 0
1305 0
1306 0
1307 0
1308 0
1309 0
1310 0
1311 0
1312 0
1313 0
1314 0
1315 0
1316 0
1317 0
1318 0
1319 0
1320 0
1321 0
1322 0
1323 0
1324 0
1325 0
1326 0
1327 0
1328 0
1329 0
1330 0
1331 0
1332 0
1333 0
1334 0
1335 0
1336 0
1337 0
1338 0
1339 0
1340 0
1341 0
1342 0
1343 0
1344 0
1345 0
1346 0
1347 0
1348 0
1349 0
1350 0
1351 0
1352 0
1353 0
1354 0
1355 0
1356 0
1357 0
1358 0
1359 0
1360 0
1361 0
1362 0
1363 0
1364 0
1365 0
1366 0
1367 0
1368 0
1369 0
1370 0
1371 0
1372 0
1373 0
1374 0
1375 0
1376 0
1377 0
1378 0
1379 0
1380 0
1381 0
1382 0
1383 0
1384 0
1385 0
1386 0
1387 0
1410 0
1453 0
1482 0
1520 0
1549 0
1593 0
-1698 0
1699 0
1700 0
1701 0
1702 0
1704 0
1705 0
1706 0
1707 0
1708 0
1709 0
1710 0
1711 0
1712 0
1713 0
1714 0
1715 0
1716 0
1717 0
1718 0
1719 0
1720 0
1721 0
1722 0
1723 0
1724 0
1725 0
1726 0
1727 0
1728 0
1729 0
1730 0
1731 0
1732 0
1733 0
1734 0
1735 0
1736 0
1737 0
1738 0
1739 0
1740 0
1741 0
1742 0
1743 0
1744 0
1745 0
1746 0
1747 0
1748 0
1749 0
1750 0
1751 0
1752 0
1753 0
1754 0
1755 0
1756 0
1757 0
1758 0
1759 0
1760 0
-1761 0
1762 0
1763 0
1764 0
1765 0
1800 0
1825 0
1854 0
2804 0
-2805 0
-2806 0
-2807 0
-2808 0
-2809 0
-2810 0
-2811 0
-2812 0
-2813 0
-2814 0
-2815 0
-2816 0
-2817 0
-2818 0
-2819 0
-2820 0
-2821 0
-2822 0
-2823 0
-2824 0
-2825 0
-2826 0
-2827 0
-2828 0
-2829 0
-2830 0
-2831 0
-2832 0
-2833 0
-2834 0
-2835 0
-2836 0
-2837 0
-2838 0
-2839 0
-2840 0
-2841 0
-2842 0
-2843 0
-2844 0
-2845 0
-2846 0
-2847 0
-2848 0
-2849 0
-2850 0
-2851 0
-2852 0
-2853 0
-2854 0
-2855 0
-2856 0
-2857 0
-2858 0
-2859 0
-2860 0
-2861 0
-2862 0
-2863 0
-2864 0
-2865 0
-2866 0
-2867 0
-2868 0
-2869 0
-2870 0
-2871 0
-2872 0
-2873 0
-2874 0
-2875 0
-2876 0
-2877 0
-2878 0
-2879 0
-2880 0
-2881 0
-2882 0
-2883 0
-2884 0
-2885 0
-2886 0
-2887 0
-2888 0
-2889 0
-2890 0
-2891 0
-2892 0
-2893 0
-2894 0
-2895 0
-2896 0
-2897 0
-2898 0
-2899 0
-2904 0
-2905 0
-2906 0
-2907 0
-2908 0
-2909 0
-2910 0
-2911 0
-2913 0
-2914 0
-2915 0
-2916 0
-2917 0
-2918 0
-2919 0
-2920 0
-2921 0
-2922 0
-2923 0
-2924 0
-2925 0
-2926 0
-2927 0
-2928 0
-2929 0
-2930 0
-2931 0
-2932 0
-2933 0
-2934 0
-2936 0
-2937 0
-2938 0
-2939 0
-2940 0
-2941 0
-2942 0
-2943 0
-2944 0
-2945 0
-2946 0
-2947 0
-2948 0
-2949 0
-2950 0
-2951 0
-2952 0
-2953 0
-2954 0
-2955 0
-2956 0
-2957 0
-2958 0
-2959 0
-2960 0
-2961 0
-2962 0
-2963 0
-2964 0
-2965 0
-2966 0
-2967 0
-2968 0
-2969 0
-2970 0
-2971 0
-2972 0
-2973 0
-2974 0
-2975 0
-2976 0
-2977 0
-2978 0
-2979 0
-2980 0
-2981 0
-2982 0
-2983 0
-2984 0
-2985 0
-2986 0
-2987 0
-2988 0
-2989 0
-2990 0
-2991 0
-2992 0
-2993 0
-2994 0
-2995 0
-2996 0
-2997 0
-2998 0
-2999 0
-3000 0
-3001 0
-3002 0
-3003 0
-3004 0
-3005 0
-3006 0
-3007 0
-3008 0
-3009 0
-3010 0
-3011 0
-3012 0
-3013 0
-3014 0
-3015 0
-3016 0
-3017 0
-3018 0
-3019 0
-3020 0
-3021 0
-3022 0
-3023 0
-3024 0
-3025 0
-3026 0
-3027 0
-3028 0
-3029 0
-3030 0
-3031 0
-3032 0
-3033 0
-3034 0
-3035 0
-3036 0
-3037 0
-3038 0
-3039 0
-3040 0
-3041 0
-3042 0
-3043 0
-3044 0
-3045 0
-3046 0
-3047 0
-3048 0
-3049 0
-3050 0
-3051 0
-3052 0
-3053 0
-3054 0
-3055 0
-3056 0
-3057 0
-3058 0
-3059 0
-3060 0
-3061 0
-3062 0
-3063 0
-3064 0
-3065 0
-3066 0
-3067 0
-3068 0
-3069 0
-3070 0
-3071 0
-3072 0
-3073 0
-3074 0
-3075 0
-3076 0
-3077 0
-3078 0
-3079 0
-3080 0
-3081 0
-3082 0
-3083 0
-3084 0
-3085 0
-3086 0
-3087 0
-3088 0
-3089 0
-3090 0
-3091 0
-3092 0
-3093 0
-3094 0
-3095 0
-3096 0
-3097 0
-3098 0
-3099 0
-3100 0
-3101 0
-3102 0
-3103 0
-3104 0
-3105 0
-3106 0
-3107 0
-3108 0
-3109 0
-3110 0
-3111 0
-3112 0
-3113 0
-3114 0
-3115 0
-3116 0
-3117 0
-3118 0
-3119 0
-3120 0
-3121 0
-3122 0
-3123 0
-3124 0
-3125 0
-3126 0
-3127 0
-3128 0
-3129 0
-3130 0
-3131 0
-3132 0
-3133 0
-3134 0
-3135 0
-3136 0
-3137 0
-3138 0
-3139 0
-3140 0
-3141 0
-3142 0
-3143 0
-3144 0
-3145 0
-3146 0
-3147 0
-3148 0
-3149 0
-3150 0
-3151 0
-3152 0
-3153 0
-3154 0
-3155 0
-3156 0
-3157 0
-3158 0
-3159 0
-3160 0
-3161 0
-3162 0
-3163 0
-3164 0
-3165 0
-3166 0
-3167 0
-3168 0
-3169 0
-3170 0
-3171 0
-3172 0
-3173 0
-3174 0
-3175 0
-3176 0
-3177 0
-3178 0
-3179 0
-3180 0
-3181 0
-3182 0
-3183 0
-3184 0
-3185 0
-3186 0
-3187 0
-3188 0
-3189 0
-3190 0
-3191 0
-3192 0
-3193 0
-3194 0
-3195 0
-3196 0
-3197 0
-3198 0
-3199 0
-3200 0
-3201 0
-3202 0
-3203 0
-3204 0
-3205 0
-3206 0
-3207 0
-3208 0
-3209 0
-3210 0
-3211 0
-3212 0
-3213 0
-3214 0
-3215 0
-3216 0
-3217 0
-3218 0
-3219 0
-3220 0
-3221 0
-3222 0
-3223 0
-3224 0
-3225 0
-2339 0
-2340 0
-2341 0
-2342 0
-2343 0
-2344 0
-2345 0
-2346 0
-2347 0
-2348 0
-2349 0
-2350 0
-2351 0
-2352 0
-2353 0
-2354 0
-2355 0
-2356 0
-2357 0
-2358 0
-2359 0
-2360 0
-2361 0
-2362 0
-2363 0
-2364 0
-2365 0
-2366 0
-2367 0
-2368 0
-2369 0
-2370 0
-2371 0
-2372 0
-2373 0
-2374 0
-2375 0
-2376 0
-2377 0
-2378 0
-2379 0
-2380 0
-2381 0
-2382 0
-2383 0
-2384 0
-2385 0
-2386 0
-2387 0
-2388 0
-2389 0
-2390 0
-2391 0
-2392 0
-2393 0
-2394 0
-2395 0
-2396 0
-2397 0
-2398 0
-2399 0
-2400 0
-2401 0
-2402 0
-2403 0
-2404 0
-2405 0
-2720 0
-2721 0
-2722 0
-2723 0
-2724 0
-2725 0
-2726 0
-2727 0
-2728 0
-2729 0
-2730 0
-2731 0
-2732 0
-2733 0
-2734 0
-2735 0
-2736 0
-2737 0
-2738 0
-2739 0
-2740 0
-2741 0
-2742 0
-2743 0
-2744 0
-2745 0
-2746 0
-2747 0
-2748 0
-2749 0
-2750 0
-2751 0
-2752 0
-2753 0
-2754 0
-2755 0
-2756 0
-2757 0
-2758 0
-2759 0
-2760 0
-2761 0
-2762 0
-2763 0
-2764 0
-2765 0
-2766 0
-2767 0
-2768 0
-2769 0
-2770 0
-2771 0
-2772 0
-2773 0
-2774 0
-2775 0
-2776 0
-2777 0
-2778 0
-2779 0
-2780 0
-2781 0
-2782 0
-2783 0
-2784 0
-2785 0
-2786 0
-2787 0
-2788 0
-2789 0
-2790 0
-2791 0
-2574 0
-2313 0
-2314 0
-1930 0
-1931 0
-1932 0
-1933 0
-1934 0
-1904 0
-1905 0
-1906 0
-1907 0
-1908 0
-1909 0
-1910 0
-1911 0
-2792 0
-1912 0
-2793 0
-1913 0
-1914 0
-2794 0
-1915 0
-2795 0
-1916 0
-1917 0
-1918 0
-1919 0
-1920 0
-1921 0
-1922 0
-1923 0
-1924 0
-1925 0
-1926 0
-2288 0
-2289 0
-2796 0
-2797 0
-2290 0
-2291 0
-2292 0
-2798 0
-2293 0
-2294 0
-2799 0
-1927 0
-2295 0
-2296 0
-2297 0
-2298 0
-2299 0
-2300 0
-2301 0
-2302 0
-2800 0
-2303 0
-2304 0
-2305 0
-2306 0
-2307 0
-2801 0
-2308 0
-2802 0
-2309 0
-2803 0
-2310 0
-2575 0
-2315 0
-2316 0
-2317 0
-2318 0
-2319 0
-2320 0
-2321 0
-2322 0
-2323 0
-2324 0
-2325 0
-2326 0
-2576 0
-2327 0
-2328 0
-2329 0
-2330 0
-2331 0
-2332 0
-2577 0
-2578 0
-2333 0
-2334 0
-2579 0
-2335 0
-2580 0
-2336 0
-2337 0
-2696 0
-2697 0
-1928 0
-2698 0
-2699 0
-2700 0
-2701 0
-2702 0
-2703 0
-2704 0
-2705 0
-2706 0
-2707 0
-2708 0
-2709 0
-2710 0
-2581 0
-2711 0
-2582 0
-2712 0
-2583 0
-2713 0
-2714 0
-2584 0
-2715 0
-2716 0
-2717 0
-2718 0
-2719 0
-2666 0
-2667 0
-2668 0
-2669 0
-2670 0
-2671 0
-2585 0
-2672 0
-2673 0
-2674 0
-2586 0
-2675 0
-2587 0
-2676 0
-2588 0
-2589 0
-2677 0
-2678 0
-2679 0
-2680 0
-2681 0
-2682 0
-2683 0
-1929 0
-2684 0
-2685 0
-2686 0
-2687 0
-2688 0
-2689 0
-2590 0
-2591 0
-2690 0
-2691 0
-2692 0
-2693 0
-2694 0
-2592 0
-2695 0
-2508 0
-2509 0
-2510 0
-2511 0
-2512 0
-2513 0
-2514 0
-2515 0
-2593 0
-2516 0
-2517 0
-2518 0
-2519 0
-2520 0
-2594 0
-2595 0
-2521 0
-2522 0
-2596 0
-2523 0
-2524 0
-2597 0
-2525 0
-2526 0
-2527 0
-2528 0
-2529 0
-2530 0
-2531 0
-2532 0
-2533 0
-2534 0
-2535 0
-2536 0
-2537 0
-2538 0
-2539 0
-2540 0
-2541 0
-2542 0
-2543 0
-2544 0
-2545 0
-2546 0
-2547 0
-2548 0
-2549 0
-2550 0
-2551 0
-2552 0
-2553 0
-2554 0
-2555 0
-2556 0
-2557 0
-2558 0
-2559 0
-2560 0
-2561 0
-2562 0
-2563 0
-2564 0
-2565 0
-2566 0
-2311 0
-2567 0
-2568 0
-2569 0
-2570 0
-2571 0
-2572 0
-2573 0
-2463 0
-2464 0
-2465 0
-2466 0
-2467 0
-2468 0
-2469 0
-2470 0
-2471 0
-2472 0
-2473 0
-2474 0
-2475 0
-2476 0
-2477 0
-2478 0
-2479 0
-2480 0
-2481 0
-2482 0
-2483 0
-2484 0
-2485 0
-2486 0
-2487 0
-2488 0
-2489 0
-2490 0
-2491 0
-2492 0
-2493 0
-2494 0
-2312 0
-2495 0
-2496 0
-2497 0
-2498 0
-2499 0
-2500 0
-2501 0
-2502 0
-2503 0
-2504 0
-2505 0
-2506 0
-2507 0
-2406 0
-2407 0
-2408 0
-2409 0
-2410 0
-2411 0
-2412 0
-2413 0
-2414 0
-2415 0
-2416 0
-2417 0
-2418 0
-2419 0
-2420 0
-2421 0
-2422 0
-2423 0
-2424 0
-2425 0
-2426 0
-2427 0
-2428 0
-2429 0
-2430 0
-2431 0
-2432 0
-2433 0
-2434 0
-2435 0
-2436 0
-2437 0
-2438 0
-2439 0
-2440 0
-2441 0
-2442 0
-2443 0
-2444 0
-2445 0
-2446 0
-2447 0
-2448 0
-2449 0
-2450 0
-2451 0
-2452 0
-2453 0
-2454 0
-2455 0
-2456 0
-2457 0
-2458 0
-2459 0
-2460 0
-2461 0
-2462 0
-2338 0

